\ENCODING=ISO-8859-1
\Problem name: IloCplex

Minimize
 obj: z
Subject To
 Knapsack: - x_0 - x_1 - x_2 - x_3 - x_4 - x_5 - x_6 - x_7 - x_8 - x_9 - x_10
           - x_11 - x_12 - x_13 - x_14 - x_15 - x_16 - x_17 - x_18 - x_19
           - x_20 - x_21 - x_22 - x_23 - x_24 - x_25 - x_26 - x_27 - x_28
           - x_29 - x_30 - x_31 - x_32 - x_33 - x_34 - x_35 - x_36 - x_37
           - x_38 - x_39 - x_40 - x_41 - x_42 - x_43 - x_44 - x_45 - x_46
           - x_47 - x_48 - x_49 - x_50 - x_51 - x_52 - x_53 - x_54 - x_55
           - x_56 - x_57 - x_58 - x_59 - x_60 - x_61 - x_62 - x_63 - x_64
           - x_65 - x_66 - x_67 - x_68 - x_69 - x_70 - x_71 - x_72 - x_73
           - x_74 - x_75 - x_76 - x_77 - x_78 - x_79 - x_80 - x_81 - x_82
           - x_83 - x_84 - x_85 - x_86 - x_87 - x_88 - x_89 - x_90 - x_91
           - x_92 - x_93 - x_94 - x_95 - x_96 - x_97 - x_98 - x_99 - x_100
           - x_101 - x_102 - x_103 - x_104 - x_105 - x_106 - x_107 - x_108
           - x_109 - x_110 - x_111 - x_112 - x_113 - x_114 - x_115 - x_116
           - x_117 >= -5
 Cover_0:  x_16 + x_52 + x_70 + x_72 + x_74 + x_82 + x_83 + x_94 + x_97 + x_104
           + x_107 + x_112  = 1
 Cover_1:  x_18 + x_52 + x_70 + x_72 + x_79 + x_96  = 1
 Cover_2:  x_20 + x_52 + x_70 + x_72 + x_74 + x_82 + x_83 + x_94 + x_97 + x_104
           + x_107 + x_112  = 1
 Cover_3:  x_22 + x_31 + x_41 + x_49 + x_54 + x_58 + x_60 + x_61 + x_63 + x_67
           + x_71 + x_75 + x_88 + x_96 + x_98 + x_105 + x_111  = 1
 Cover_4:  x_24 + x_58 + x_61 + x_66 + x_71 + x_78 + x_88 + x_89 + x_111  = 1
 Cover_5:  x_26 + x_37 + x_54 + x_59 + x_63 + x_65 + x_80 + x_92 + x_99 + x_108
           + x_109 + x_110 + x_117  = 1
 Cover_6:  x_29 + x_41 + x_49 + x_54 + x_58 + x_60 + x_61 + x_63 + x_71 + x_96
           + x_98 + x_105 + x_111  = 1
 Cover_7:  x_32 + x_41 + x_54 + x_60 + x_63 + x_71 + x_79 + x_96 + x_98 + x_99
           + x_105  = 1
 Cover_8:  x_35 + x_52 + x_62 + x_70 + x_72 + x_79 + x_96  = 1
 Cover_9:  x_39 + x_54 + x_63 + x_65 + x_80 + x_92 + x_98 + x_99 + x_105
           + x_108 + x_109 + x_110 + x_117  = 1
 Cover_10: x_45 + x_59 + x_73 + x_76 + x_80 + x_81 + x_87 + x_90 + x_93 + x_95
           + x_101 + x_102 + x_103 + x_109 + x_113 + x_115 + x_116  = 1
 Cover_11: x_48 + x_64 + x_68 + x_73 + x_74 + x_76 + x_80 + x_81 + x_87 + x_94
           + x_95 + x_100 + x_103 + x_106 + x_112 + x_113 + x_116  = 1
 Cover_12: x_37 + x_51 + x_53 + x_56 + x_65 + x_75 + x_77 + x_78 + x_85 + x_92
           + x_99 + x_108 + x_110 + x_114 + x_117  = 1
 Cover_13: x_57 + x_59 + x_64 + x_73 + x_74 + x_80 + x_81 + x_86 + x_87 + x_93
           + x_95 + x_100 + x_106 + x_109 + x_112 + x_113 + x_115 + x_116  = 1
 Cover_14: x_41 + x_43 + x_46 + x_47 + x_58 + x_62 + x_69 + x_88 + x_89 + x_91
           + x_111  = 1
 Cover_15: x_37 + x_55 + x_56 + x_67 + x_68 + x_75 + x_77 + x_78 + x_84 + x_108
           + x_110  = 1
 Cover_16: x_7 + x_37 + x_53 + x_56 + x_65 + x_75 + x_77 + x_78 + x_85 + x_92
           + x_99 + x_108 + x_110 + x_114 + x_117  = 1
 Cover_17: x_10 + x_36 + x_40 + x_55 + x_58 + x_61 + x_66 + x_71 + x_78 + x_88
           + x_101 + x_103  = 1
 Cover_18: x_11 + x_34 + x_37 + x_44 + x_46 + x_47 + x_53 + x_56 + x_65 + x_75
           + x_77 + x_78 + x_85 + x_92 + x_99 + x_110 + x_114 + x_117  = 1
 Cover_19: x_0 + x_37 + x_54 + x_59 + x_63 + x_65 + x_80 + x_92 + x_99 + x_105
           + x_108 + x_109 + x_110 + x_117  = 1
 Cover_20: x_13 + x_59 + x_73 + x_76 + x_80 + x_81 + x_87 + x_93 + x_95 + x_100
           + x_103 + x_106 + x_109 + x_112 + x_113 + x_115 + x_116  = 1
 Cover_21: x_12 + x_34 + x_37 + x_44 + x_46 + x_47 + x_53 + x_56 + x_65 + x_75
           + x_77 + x_78 + x_85 + x_92 + x_99 + x_104 + x_114 + x_117  = 1
 Cover_22: x_14 + x_41 + x_49 + x_54 + x_58 + x_60 + x_61 + x_63 + x_71 + x_88
           + x_96 + x_98 + x_105 + x_111  = 1
 Cover_23: x_15 + x_31 + x_41 + x_49 + x_54 + x_58 + x_60 + x_61 + x_63 + x_71
           + x_75 + x_88 + x_96 + x_98 + x_105 + x_111  = 1
 Cover_24: x_4 + x_52 + x_64 + x_72 + x_73 + x_74 + x_81 + x_83 + x_86 + x_93
           + x_94 + x_95 + x_97 + x_100 + x_104 + x_106 + x_107 + x_112  = 1
 Cover_25: x_3 + x_40 + x_50 + x_59 + x_76 + x_87 + x_90 + x_93 + x_101 + x_102
           + x_103 + x_109 + x_113 + x_115 + x_116  = 1
 Cover_26: x_5 + x_28 + x_34 + x_38 + x_42 + x_43 + x_44 + x_47 + x_53 + x_66
           + x_89 + x_91 + x_111  = 1
 Cover_27: x_2 + x_28 + x_34 + x_42 + x_43 + x_44 + x_46 + x_47 + x_53 + x_66
           + x_89 + x_91 + x_92 + x_111  = 1
 Cover_28: x_6 + x_52 + x_70 + x_72 + x_74 + x_82 + x_83 + x_94 + x_97 + x_104
           + x_107 + x_112  = 1
 Cover_29: x_1 + x_59 + x_64 + x_73 + x_74 + x_81 + x_86 + x_93 + x_95 + x_100
           + x_106 + x_107 + x_109 + x_112 + x_113 + x_115 + x_116  = 1
 Cover_30: x_8 + x_59 + x_64 + x_72 + x_73 + x_74 + x_81 + x_86 + x_93 + x_95
           + x_97 + x_100 + x_106 + x_107 + x_112 + x_115 + x_116  = 1
 Cover_31: x_9 + x_50 + x_59 + x_76 + x_80 + x_87 + x_90 + x_93 + x_95 + x_101
           + x_102 + x_103 + x_109 + x_113 + x_115 + x_116  = 1
 Cover_32: x_17 + x_54 + x_63 + x_65 + x_80 + x_92 + x_98 + x_99 + x_105
           + x_108 + x_109 + x_110 + x_117  = 1
 Cover_33: x_19 + x_28 + x_34 + x_38 + x_42 + x_43 + x_44 + x_46 + x_47 + x_53
           + x_66 + x_89 + x_91 + x_111  = 1
 Cover_34: x_21 + x_52 + x_70 + x_72 + x_74 + x_82 + x_83 + x_94 + x_97 + x_104
           + x_107 + x_112  = 1
 Cover_35: x_23 + x_36 + x_38 + x_40 + x_42 + x_44 + x_55 + x_61 + x_66 + x_89
           + x_91 + x_101 + x_102  = 1
 Cover_36: x_25 + x_37 + x_56 + x_67 + x_68 + x_75 + x_77 + x_78 + x_108
           + x_110 + x_117  = 1
 Cover_37: x_27 + x_52 + x_70 + x_72 + x_79 + x_82 + x_83 + x_94 + x_97 + x_104
           + x_107  = 1
 Cover_38: x_30 + x_52 + x_56 + x_70 + x_79 + x_82 + x_83 + x_94 + x_97 + x_104
           + x_107 + x_114  = 1
 Cover_39: x_33 + x_50 + x_59 + x_76 + x_80 + x_87 + x_90 + x_93 + x_95 + x_101
           + x_102 + x_103 + x_109 + x_113 + x_115 + x_116  = 1
 Z_0:      z - 95 x_52 - 93 x_70 - 88 x_72 - 94 x_74 - 51 x_82 - 53 x_83
           - 87 x_94 - 71 x_97 - 86 x_104 - 88 x_107 - 91 x_112 >= 0
 Z_1:      z - 95 x_52 - 93 x_70 - 88 x_72 - 87 x_79 - 94 x_96 >= 0
 Z_2:      z - 95 x_52 - 93 x_70 - 88 x_72 - 94 x_74 - 51 x_82 - 53 x_83
           - 87 x_94 - 71 x_97 - 86 x_104 - 88 x_107 - 91 x_112 >= 0
 Z_3:      z - 11 x_31 - 82 x_41 - 41 x_49 - 90 x_54 - 95 x_58 - 51 x_60
           - 95 x_61 - 95 x_63 - 55 x_67 - 76 x_71 - 93 x_75 - 85 x_88
           - 94 x_96 - 76 x_98 - 82 x_105 - 93 x_111 >= 0
 Z_4:      z - 95 x_58 - 95 x_61 - 69 x_66 - 76 x_71 - 91 x_78 - 85 x_88
           - 86 x_89 - 93 x_111 >= 0
 Z_5:      z - 81 x_37 - 90 x_54 - 95 x_59 - 95 x_63 - 78 x_65 - 93 x_80
           - 95 x_92 - 93 x_99 - 67 x_108 - 94 x_109 - 78 x_110 - 79 x_117 >= 0
 Z_6:      z - 82 x_41 - 41 x_49 - 90 x_54 - 95 x_58 - 51 x_60 - 95 x_61
           - 95 x_63 - 76 x_71 - 94 x_96 - 76 x_98 - 82 x_105 - 93 x_111 >= 0
 Z_7:      z - 82 x_41 - 90 x_54 - 51 x_60 - 95 x_63 - 76 x_71 - 87 x_79
           - 94 x_96 - 76 x_98 - 93 x_99 - 82 x_105 >= 0
 Z_8:      z - 95 x_52 - 43 x_62 - 93 x_70 - 88 x_72 - 87 x_79 - 94 x_96 >= 0
 Z_9:      z - 90 x_54 - 95 x_63 - 78 x_65 - 93 x_80 - 95 x_92 - 76 x_98
           - 93 x_99 - 82 x_105 - 67 x_108 - 94 x_109 - 78 x_110 - 79 x_117
           >= 0
 Z_10:     z - 95 x_59 - 82 x_73 - 65 x_76 - 93 x_80 - 89 x_81 - 69 x_87
           - 30 x_90 - 85 x_93 - 92 x_95 - 88 x_101 - 88 x_102 - 94 x_103
           - 94 x_109 - 77 x_113 - 67 x_115 - 94 x_116 >= 0
 Z_11:     z - 77 x_64 - 66 x_68 - 82 x_73 - 94 x_74 - 65 x_76 - 93 x_80
           - 89 x_81 - 69 x_87 - 87 x_94 - 92 x_95 - 74 x_100 - 94 x_103
           - 81 x_106 - 91 x_112 - 77 x_113 - 94 x_116 >= 0
 Z_12:     z - 81 x_37 - 74 x_53 - 95 x_56 - 78 x_65 - 93 x_75 - 58 x_77
           - 91 x_78 - 39 x_85 - 95 x_92 - 93 x_99 - 67 x_108 - 78 x_110
           - 76 x_114 - 79 x_117 >= 0
 Z_13:     z - 95 x_59 - 77 x_64 - 82 x_73 - 94 x_74 - 93 x_80 - 89 x_81
           - 43 x_86 - 69 x_87 - 85 x_93 - 92 x_95 - 74 x_100 - 81 x_106
           - 94 x_109 - 91 x_112 - 77 x_113 - 67 x_115 - 94 x_116 >= 0
 Z_14:     z - 82 x_41 - 47 x_43 - 79 x_46 - 83 x_47 - 95 x_58 - 43 x_62
           - 85 x_88 - 86 x_89 - 85 x_91 - 93 x_111 >= 0
 Z_15:     z - 81 x_37 - 59 x_55 - 95 x_56 - 55 x_67 - 66 x_68 - 93 x_75
           - 58 x_77 - 91 x_78 - 67 x_108 - 78 x_110 >= 0
 Z_16:     z - 81 x_37 - 74 x_53 - 95 x_56 - 78 x_65 - 93 x_75 - 58 x_77
           - 91 x_78 - 39 x_85 - 95 x_92 - 93 x_99 - 67 x_108 - 78 x_110
           - 76 x_114 - 79 x_117 >= 0
 Z_17:     z - 29 x_36 - 58 x_40 - 59 x_55 - 95 x_58 - 95 x_61 - 69 x_66
           - 76 x_71 - 91 x_78 - 85 x_88 - 88 x_101 - 94 x_103 >= 0
 Z_18:     z - 54 x_34 - 81 x_37 - 92 x_44 - 79 x_46 - 83 x_47 - 74 x_53
           - 95 x_56 - 78 x_65 - 93 x_75 - 58 x_77 - 91 x_78 - 39 x_85
           - 95 x_92 - 93 x_99 - 78 x_110 - 76 x_114 - 79 x_117 >= 0
 Z_19:     z - 81 x_37 - 90 x_54 - 95 x_59 - 95 x_63 - 78 x_65 - 93 x_80
           - 95 x_92 - 93 x_99 - 82 x_105 - 67 x_108 - 94 x_109 - 78 x_110
           - 79 x_117 >= 0
 Z_20:     z - 95 x_59 - 82 x_73 - 65 x_76 - 93 x_80 - 89 x_81 - 69 x_87
           - 85 x_93 - 92 x_95 - 74 x_100 - 94 x_103 - 81 x_106 - 94 x_109
           - 91 x_112 - 77 x_113 - 67 x_115 - 94 x_116 >= 0
 Z_21:     z - 54 x_34 - 81 x_37 - 92 x_44 - 79 x_46 - 83 x_47 - 74 x_53
           - 95 x_56 - 78 x_65 - 93 x_75 - 58 x_77 - 91 x_78 - 39 x_85
           - 95 x_92 - 93 x_99 - 86 x_104 - 76 x_114 - 79 x_117 >= 0
 Z_22:     z - 82 x_41 - 41 x_49 - 90 x_54 - 95 x_58 - 51 x_60 - 95 x_61
           - 95 x_63 - 76 x_71 - 85 x_88 - 94 x_96 - 76 x_98 - 82 x_105
           - 93 x_111 >= 0
 Z_23:     z - 11 x_31 - 82 x_41 - 41 x_49 - 90 x_54 - 95 x_58 - 51 x_60
           - 95 x_61 - 95 x_63 - 76 x_71 - 93 x_75 - 85 x_88 - 94 x_96
           - 76 x_98 - 82 x_105 - 93 x_111 >= 0
 Z_24:     z - 95 x_52 - 77 x_64 - 88 x_72 - 82 x_73 - 94 x_74 - 89 x_81
           - 53 x_83 - 43 x_86 - 85 x_93 - 87 x_94 - 92 x_95 - 71 x_97
           - 74 x_100 - 86 x_104 - 81 x_106 - 88 x_107 - 91 x_112 >= 0
 Z_25:     z - 58 x_40 - 26 x_50 - 95 x_59 - 65 x_76 - 69 x_87 - 30 x_90
           - 85 x_93 - 88 x_101 - 88 x_102 - 94 x_103 - 94 x_109 - 77 x_113
           - 67 x_115 - 94 x_116 >= 0
 Z_26:     z - 18 x_28 - 54 x_34 - 42 x_38 - 56 x_42 - 47 x_43 - 92 x_44
           - 83 x_47 - 74 x_53 - 69 x_66 - 86 x_89 - 85 x_91 - 93 x_111 >= 0
 Z_27:     z - 18 x_28 - 54 x_34 - 56 x_42 - 47 x_43 - 92 x_44 - 79 x_46
           - 83 x_47 - 74 x_53 - 69 x_66 - 86 x_89 - 85 x_91 - 95 x_92
           - 93 x_111 >= 0
 Z_28:     z - 95 x_52 - 93 x_70 - 88 x_72 - 94 x_74 - 51 x_82 - 53 x_83
           - 87 x_94 - 71 x_97 - 86 x_104 - 88 x_107 - 91 x_112 >= 0
 Z_29:     z - 95 x_59 - 77 x_64 - 82 x_73 - 94 x_74 - 89 x_81 - 43 x_86
           - 85 x_93 - 92 x_95 - 74 x_100 - 81 x_106 - 88 x_107 - 94 x_109
           - 91 x_112 - 77 x_113 - 67 x_115 - 94 x_116 >= 0
 Z_30:     z - 95 x_59 - 77 x_64 - 88 x_72 - 82 x_73 - 94 x_74 - 89 x_81
           - 43 x_86 - 85 x_93 - 92 x_95 - 71 x_97 - 74 x_100 - 81 x_106
           - 88 x_107 - 91 x_112 - 67 x_115 - 94 x_116 >= 0
 Z_31:     z - 26 x_50 - 95 x_59 - 65 x_76 - 93 x_80 - 69 x_87 - 30 x_90
           - 85 x_93 - 92 x_95 - 88 x_101 - 88 x_102 - 94 x_103 - 94 x_109
           - 77 x_113 - 67 x_115 - 94 x_116 >= 0
 Z_32:     z - 90 x_54 - 95 x_63 - 78 x_65 - 93 x_80 - 95 x_92 - 76 x_98
           - 93 x_99 - 82 x_105 - 67 x_108 - 94 x_109 - 78 x_110 - 79 x_117
           >= 0
 Z_33:     z - 18 x_28 - 54 x_34 - 42 x_38 - 56 x_42 - 47 x_43 - 92 x_44
           - 79 x_46 - 83 x_47 - 74 x_53 - 69 x_66 - 86 x_89 - 85 x_91
           - 93 x_111 >= 0
 Z_34:     z - 95 x_52 - 93 x_70 - 88 x_72 - 94 x_74 - 51 x_82 - 53 x_83
           - 87 x_94 - 71 x_97 - 86 x_104 - 88 x_107 - 91 x_112 >= 0
 Z_35:     z - 29 x_36 - 42 x_38 - 58 x_40 - 56 x_42 - 92 x_44 - 59 x_55
           - 95 x_61 - 69 x_66 - 86 x_89 - 85 x_91 - 88 x_101 - 88 x_102 >= 0
 Z_36:     z - 81 x_37 - 95 x_56 - 55 x_67 - 66 x_68 - 93 x_75 - 58 x_77
           - 91 x_78 - 67 x_108 - 78 x_110 - 79 x_117 >= 0
 Z_37:     z - 95 x_52 - 93 x_70 - 88 x_72 - 87 x_79 - 51 x_82 - 53 x_83
           - 87 x_94 - 71 x_97 - 86 x_104 - 88 x_107 >= 0
 Z_38:     z - 95 x_52 - 95 x_56 - 93 x_70 - 87 x_79 - 51 x_82 - 53 x_83
           - 87 x_94 - 71 x_97 - 86 x_104 - 88 x_107 - 76 x_114 >= 0
 Z_39:     z - 26 x_50 - 95 x_59 - 65 x_76 - 93 x_80 - 69 x_87 - 30 x_90
           - 85 x_93 - 92 x_95 - 88 x_101 - 88 x_102 - 94 x_103 - 94 x_109
           - 77 x_113 - 67 x_115 - 94 x_116 >= 0
Bounds
 0 <= x_0 <= 1
 0 <= x_1 <= 1
 0 <= x_2 <= 1
 0 <= x_3 <= 1
 0 <= x_4 <= 1
 0 <= x_5 <= 1
 0 <= x_6 <= 1
 0 <= x_7 <= 1
 0 <= x_8 <= 1
 0 <= x_9 <= 1
 0 <= x_10 <= 1
 0 <= x_11 <= 1
 0 <= x_12 <= 1
 0 <= x_13 <= 1
 0 <= x_14 <= 1
 0 <= x_15 <= 1
 0 <= x_16 <= 1
 0 <= x_17 <= 1
 0 <= x_18 <= 1
 0 <= x_19 <= 1
 0 <= x_20 <= 1
 0 <= x_21 <= 1
 0 <= x_22 <= 1
 0 <= x_23 <= 1
 0 <= x_24 <= 1
 0 <= x_25 <= 1
 0 <= x_26 <= 1
 0 <= x_27 <= 1
 0 <= x_28 <= 1
 0 <= x_29 <= 1
 0 <= x_30 <= 1
 0 <= x_31 <= 1
 0 <= x_32 <= 1
 0 <= x_33 <= 1
 0 <= x_34 <= 1
 0 <= x_35 <= 1
 0 <= x_36 <= 1
 0 <= x_37 <= 1
 0 <= x_38 <= 1
 0 <= x_39 <= 1
 0 <= x_40 <= 1
 0 <= x_41 <= 1
 0 <= x_42 <= 1
 0 <= x_43 <= 1
 0 <= x_44 <= 1
 0 <= x_45 <= 1
 0 <= x_46 <= 1
 0 <= x_47 <= 1
 0 <= x_48 <= 1
 0 <= x_49 <= 1
 0 <= x_50 <= 1
 0 <= x_51 <= 1
 0 <= x_52 <= 1
 0 <= x_53 <= 1
 0 <= x_54 <= 1
 0 <= x_55 <= 1
 0 <= x_56 <= 1
 0 <= x_57 <= 1
 0 <= x_58 <= 1
 0 <= x_59 <= 1
 0 <= x_60 <= 1
 0 <= x_61 <= 1
 0 <= x_62 <= 1
 0 <= x_63 <= 1
 0 <= x_64 <= 1
 0 <= x_65 <= 1
 0 <= x_66 <= 1
 0 <= x_67 <= 1
 0 <= x_68 <= 1
 0 <= x_69 <= 1
 0 <= x_70 <= 1
 0 <= x_71 <= 1
 0 <= x_72 <= 1
 0 <= x_73 <= 1
 0 <= x_74 <= 1
 0 <= x_75 <= 1
 0 <= x_76 <= 1
 0 <= x_77 <= 1
 0 <= x_78 <= 1
 0 <= x_79 <= 1
 0 <= x_80 <= 1
 0 <= x_81 <= 1
 0 <= x_82 <= 1
 0 <= x_83 <= 1
 0 <= x_84 <= 1
 0 <= x_85 <= 1
 0 <= x_86 <= 1
 0 <= x_87 <= 1
 0 <= x_88 <= 1
 0 <= x_89 <= 1
 0 <= x_90 <= 1
 0 <= x_91 <= 1
 0 <= x_92 <= 1
 0 <= x_93 <= 1
 0 <= x_94 <= 1
 0 <= x_95 <= 1
 0 <= x_96 <= 1
 0 <= x_97 <= 1
 0 <= x_98 <= 1
 0 <= x_99 <= 1
 0 <= x_100 <= 1
 0 <= x_101 <= 1
 0 <= x_102 <= 1
 0 <= x_103 <= 1
 0 <= x_104 <= 1
 0 <= x_105 <= 1
 0 <= x_106 <= 1
 0 <= x_107 <= 1
 0 <= x_108 <= 1
 0 <= x_109 <= 1
 0 <= x_110 <= 1
 0 <= x_111 <= 1
 0 <= x_112 <= 1
 0 <= x_113 <= 1
 0 <= x_114 <= 1
 0 <= x_115 <= 1
 0 <= x_116 <= 1
 0 <= x_117 <= 1
End
